50 8
936 265
211 164
686 552
386 168
205 701
460 49
333 88
716 686
578 103
523 221
707 239
556 539
595 76
501 518
371 715
366 850
529 105
549 799
519 211
186 79
684 285
399 239
310 744
923 306
238 524
426 183
496 387
663 106
523 464
792 277
307 710
595 642
447 768
641 69
862 319
133 705
214 122
208 339
928 651
841 129
626 387
213 494
727 267
834 389
317 779
956 384
178 164
174 624
266 746
567 778
